c generated by sgen
p cnf 125 260
-2 -3 -4 0
-1 -3 -4 0
-1 -2 -4 0
-1 -2 -3 0
-6 -7 -8 0
-5 -7 -8 0
-5 -6 -8 0
-5 -6 -7 0
-10 -11 -12 0
-9 -11 -12 0
-9 -10 -12 0
-9 -10 -11 0
-14 -15 -16 0
-13 -15 -16 0
-13 -14 -16 0
-13 -14 -15 0
-18 -19 -20 0
-17 -19 -20 0
-17 -18 -20 0
-17 -18 -19 0
-22 -23 -24 0
-21 -23 -24 0
-21 -22 -24 0
-21 -22 -23 0
-26 -27 -28 0
-25 -27 -28 0
-25 -26 -28 0
-25 -26 -27 0
-30 -31 -32 0
-29 -31 -32 0
-29 -30 -32 0
-29 -30 -31 0
-34 -35 -36 0
-33 -35 -36 0
-33 -34 -36 0
-33 -34 -35 0
-38 -39 -40 0
-37 -39 -40 0
-37 -38 -40 0
-37 -38 -39 0
-42 -43 -44 0
-41 -43 -44 0
-41 -42 -44 0
-41 -42 -43 0
-46 -47 -48 0
-45 -47 -48 0
-45 -46 -48 0
-45 -46 -47 0
-50 -51 -52 0
-49 -51 -52 0
-49 -50 -52 0
-49 -50 -51 0
-54 -55 -56 0
-53 -55 -56 0
-53 -54 -56 0
-53 -54 -55 0
-58 -59 -60 0
-57 -59 -60 0
-57 -58 -60 0
-57 -58 -59 0
-62 -63 -64 0
-61 -63 -64 0
-61 -62 -64 0
-61 -62 -63 0
-66 -67 -68 0
-65 -67 -68 0
-65 -66 -68 0
-65 -66 -67 0
-70 -71 -72 0
-69 -71 -72 0
-69 -70 -72 0
-69 -70 -71 0
-74 -75 -76 0
-73 -75 -76 0
-73 -74 -76 0
-73 -74 -75 0
-78 -79 -80 0
-77 -79 -80 0
-77 -78 -80 0
-77 -78 -79 0
-82 -83 -84 0
-81 -83 -84 0
-81 -82 -84 0
-81 -82 -83 0
-86 -87 -88 0
-85 -87 -88 0
-85 -86 -88 0
-85 -86 -87 0
-90 -91 -92 0
-89 -91 -92 0
-89 -90 -92 0
-89 -90 -91 0
-94 -95 -96 0
-93 -95 -96 0
-93 -94 -96 0
-93 -94 -95 0
-98 -99 -100 0
-97 -99 -100 0
-97 -98 -100 0
-97 -98 -99 0
-102 -103 -104 0
-101 -103 -104 0
-101 -102 -104 0
-101 -102 -103 0
-106 -107 -108 0
-105 -107 -108 0
-105 -106 -108 0
-105 -106 -107 0
-110 -111 -112 0
-109 -111 -112 0
-109 -110 -112 0
-109 -110 -111 0
-114 -115 -116 0
-113 -115 -116 0
-113 -114 -116 0
-113 -114 -115 0
-118 -119 -120 0
-117 -119 -120 0
-117 -118 -120 0
-117 -118 -119 0
-121 -122 -123 0
-121 -122 -124 0
-121 -122 -125 0
-121 -123 -124 0
-121 -123 -125 0
-121 -124 -125 0
-122 -123 -124 0
-122 -123 -125 0
-122 -124 -125 0
-123 -124 -125 0
112 2 62 0
102 2 62 0
102 112 62 0
102 112 2 0
57 39 43 0
7 39 43 0
7 57 43 0
7 57 39 0
82 69 66 0
34 69 66 0
34 82 66 0
34 82 69 0
60 110 18 0
72 110 18 0
72 60 18 0
72 60 110 0
100 79 33 0
31 79 33 0
31 100 33 0
31 100 79 0
10 116 65 0
46 116 65 0
46 10 65 0
46 10 116 0
101 93 44 0
77 93 44 0
77 101 44 0
77 101 93 0
81 48 78 0
38 48 78 0
38 81 78 0
38 81 48 0
119 36 13 0
114 36 13 0
114 119 13 0
114 119 36 0
103 28 40 0
76 28 40 0
76 103 40 0
76 103 28 0
41 63 108 0
27 63 108 0
27 41 108 0
27 41 63 0
123 64 75 0
80 64 75 0
80 123 75 0
80 123 64 0
32 120 45 0
105 120 45 0
105 32 45 0
105 32 120 0
9 86 15 0
61 86 15 0
61 9 15 0
61 9 86 0
52 113 87 0
99 113 87 0
99 52 87 0
99 52 113 0
6 29 118 0
4 29 118 0
4 6 118 0
4 6 29 0
56 21 47 0
70 21 47 0
70 56 47 0
70 56 21 0
30 14 19 0
55 14 19 0
55 30 19 0
55 30 14 0
124 96 88 0
117 96 88 0
117 124 88 0
117 124 96 0
25 83 51 0
17 83 51 0
17 25 51 0
17 25 83 0
104 84 8 0
22 84 8 0
22 104 8 0
22 104 84 0
89 54 122 0
26 54 122 0
26 89 122 0
26 89 54 0
107 97 12 0
53 97 12 0
53 107 12 0
53 107 97 0
115 37 24 0
111 37 24 0
111 115 24 0
111 115 37 0
59 16 50 0
74 16 50 0
74 59 50 0
74 59 16 0
94 23 73 0
67 23 73 0
67 94 73 0
67 94 23 0
125 109 1 0
98 109 1 0
98 125 1 0
98 125 109 0
85 68 92 0
58 68 92 0
58 85 92 0
58 85 68 0
71 11 42 0
121 11 42 0
121 71 42 0
121 71 11 0
20 90 106 0
3 90 106 0
3 20 106 0
3 20 90 0
49 5 35 0
49 5 91 0
49 5 95 0
49 35 91 0
49 35 95 0
49 91 95 0
5 35 91 0
5 35 95 0
5 91 95 0
35 91 95 0
